g3 1 1 0	# problem inst_sans_ref
 8 8 1 0 0	# vars, constraints, objectives, ranges, eqns
 8 1	# nonlinear constraints, objectives
 0 0	# network constraints: nonlinear, linear
 8 7 7	# nonlinear vars in constraints, objectives, both
 0 0 0 1	# linear network variables; functions; arith, flags
 0 0 0 0 0	# discrete variables: binary, integer, nonlinear (b,c,o)
 64 8	# nonzeros in Jacobian, gradients
 0 0	# max name lengths: constraints, variables
 0 0 0 0 0	# common exprs: b,c,o,c1,o1
b
0 0 1
0 0 1
0 0 1
0 0 1
0 0 1
0 0 1
0 0 1
0 0 1
r
1 35.55
1 96.96
1 61.2
1 91.79
1 17.32
1 42.74
1 90.22
1 53.5
C0
o54
16
o2
o2
n-0.34
v7
v4
o2
o2
n-0.43
v7
v5
o2
o2
n-0.595
v7
v6
o2
o2
n-0.78
v0
v5
o2
o2
n0.33
v0
v6
o2
o2
n0.795
v1
v6
o2
o2
n0.385
v2
v4
o2
o2
n-0.16
v2
v5
o2
o2
n-0.34
v4
v7
o2
o2
n0.385
v4
v2
o2
o2
n-0.43
v5
v7
o2
o2
n-0.78
v5
v0
o2
o2
n-0.16
v5
v2
o2
o2
n-0.595
v6
v7
o2
o2
n0.33
v6
v0
o2
o2
n0.795
v6
v1
C1
o54
16
o2
o2
n-0.7
v7
v3
o2
o2
n-0.17
v7
v6
o2
o2
n0.705
v0
v5
o2
o2
n-0.165
v1
v3
o2
o2
n-0.095
v1
v4
o2
o2
n0.39
v1
v5
o2
o2
n-0.695
v2
v4
o2
o2
n-0.38
v2
v5
o2
o2
n-0.7
v3
v7
o2
o2
n-0.165
v3
v1
o2
o2
n-0.095
v4
v1
o2
o2
n-0.695
v4
v2
o2
o2
n0.705
v5
v0
o2
o2
n0.39
v5
v1
o2
o2
n-0.38
v5
v2
o2
o2
n-0.17
v6
v7
C2
o54
16
o2
o2
n0.155
v7
v3
o2
o2
n-0.665
v0
v3
o2
o2
n-0.755
v0
v5
o2
o2
n0.4
v1
v4
o2
o2
n-0.305
v2
v3
o2
o2
n0.165
v2
v4
o2
o2
n0.62
v2
v5
o2
o2
n0.315
v2
v6
o2
o2
n0.155
v3
v7
o2
o2
n-0.665
v3
v0
o2
o2
n-0.305
v3
v2
o2
o2
n0.4
v4
v1
o2
o2
n0.165
v4
v2
o2
o2
n-0.755
v5
v0
o2
o2
n0.62
v5
v2
o2
o2
n0.315
v6
v2
C3
o54
16
o2
o2
n0.87
v7
v4
o2
o2
n-0.52
v7
v5
o2
o2
n-0.63
v7
v6
o2
o2
n-0.035
v0
v4
o2
o2
n-0.835
v1
v5
o2
o2
n0.05
v1
v6
o2
o2
n0.06
v2
v5
o2
o2
n0.59
v2
v6
o2
o2
n0.87
v4
v7
o2
o2
n-0.035
v4
v0
o2
o2
n-0.52
v5
v7
o2
o2
n-0.835
v5
v1
o2
o2
n0.06
v5
v2
o2
o2
n-0.63
v6
v7
o2
o2
n0.05
v6
v1
o2
o2
n0.59
v6
v2
C4
o54
16
o2
o2
n0.115
v7
v4
o2
o2
n-0.22
v7
v5
o2
o2
n0.98
v0
v6
o2
o2
n0.53
v1
v4
o2
o2
n-0.025
v1
v5
o2
o2
n-0.285
v1
v6
o2
o2
n0.33
v2
v3
o2
o2
n0.01
v2
v5
o2
o2
n0.33
v3
v2
o2
o2
n0.115
v4
v7
o2
o2
n0.53
v4
v1
o2
o2
n-0.22
v5
v7
o2
o2
n-0.025
v5
v1
o2
o2
n0.01
v5
v2
o2
o2
n0.98
v6
v0
o2
o2
n-0.285
v6
v1
C5
o54
16
o2
o2
n-0.85
v7
v4
o2
o2
n-0.195
v0
v3
o2
o2
n-0.325
v1
v3
o2
o2
n0.16
v1
v5
o2
o2
n-0.295
v1
v6
o2
o2
n-0.415
v2
v4
o2
o2
n0.52
v2
v5
o2
o2
n0.665
v2
v6
o2
o2
n-0.195
v3
v0
o2
o2
n-0.325
v3
v1
o2
o2
n-0.85
v4
v7
o2
o2
n-0.415
v4
v2
o2
o2
n0.16
v5
v1
o2
o2
n0.52
v5
v2
o2
o2
n-0.295
v6
v1
o2
o2
n0.665
v6
v2
C6
o54
16
o2
o2
n-0.925
v7
v3
o2
o2
n0.99
v7
v4
o2
o2
n0.4
v7
v6
o2
o2
n-0.04
v0
v5
o2
o2
n-0.88
v1
v3
o2
o2
n-0.75
v1
v5
o2
o2
n-0.045
v2
v4
o2
o2
n0.21
v2
v5
o2
o2
n-0.925
v3
v7
o2
o2
n-0.88
v3
v1
o2
o2
n0.99
v4
v7
o2
o2
n-0.045
v4
v2
o2
o2
n-0.04
v5
v0
o2
o2
n-0.75
v5
v1
o2
o2
n0.21
v5
v2
o2
o2
n0.4
v6
v7
C7
o54
16
o2
o2
n0.995
v7
v5
o2
o2
n-0.495
v7
v6
o2
o2
n-0.355
v0
v5
o2
o2
n-0.64
v1
v3
o2
o2
n0.23
v1
v5
o2
o2
n-0.1
v1
v6
o2
o2
n0.365
v2
v3
o2
o2
n-0.105
v2
v4
o2
o2
n-0.64
v3
v1
o2
o2
n0.365
v3
v2
o2
o2
n-0.105
v4
v2
o2
o2
n0.995
v5
v7
o2
o2
n-0.355
v5
v0
o2
o2
n0.23
v5
v1
o2
o2
n-0.495
v6
v7
o2
o2
n-0.1
v6
v1
O0 0
o54
16
o2
o2
n0.33
v0
v3
o2
o2
n0.24
v0
v4
o2
o2
n-0.64
v0
v5
o2
o2
n-0.93
v0
v6
o2
o2
n0.115
v1
v3
o2
o2
n-0.87
v1
v5
o2
o2
n0.44
v2
v4
o2
o2
n0.13
v2
v6
o2
o2
n0.33
v3
v0
o2
o2
n0.115
v3
v1
o2
o2
n0.24
v4
v0
o2
o2
n0.44
v4
v2
o2
o2
n-0.64
v5
v0
o2
o2
n-0.87
v5
v1
o2
o2
n-0.93
v6
v0
o2
o2
n0.13
v6
v2
k7
8
16
24
32
40
48
56
J0 8
0 -0.57
1 -0.51
2 -0.99
3 -0.59
4 -0.29
5 0.99
6 -0.84
7 0.98
J1 8
0 0.72
1 -0.19
2 -0.35
3 0.4
4 -0.5
5 0.25
6 0.2
7 0.33
J2 8
0 0.55
1 -0.61
2 0.97
3 0.03
4 -0.18
5 -0.22
6 0.07
7 -0.37
J3 8
0 0.99
1 -0.22
2 0.2
3 0.39
4 -0.56
5 0.51
6 0.53
7 -0.76
J4 8
0 -0.17
1 -0.21
2 0.83
3 0.47
4 -0.87
5 0
6 0.18
7 0.7
J5 8
0 0.04
1 -0.3
2 0.53
3 0.82
4 0.11
5 0.43
6 0.11
7 0.37
J6 8
0 0.58
1 -0.99
2 -0.04
3 0.55
4 0.18
5 0.81
6 0.42
7 0.03
J7 8
0 0.83
1 -0.71
2 0.99
3 -0.62
4 0.64
5 0
6 0.82
7 0.12
G0 8
0 -0.97
1 0.47
2 0.37
3 -0.72
4 0.25
5 -0.77
6 0.85
7 0.34
